# Objective value = -30
O_P_0 0
O_N_0 0
A_P_0 0
P_N_0 0
O_P_1 0
O_N_1 0
A_P_1 0
P_N_1 0
O_P_2 0
O_N_2 0
A_P_2 0
P_N_2 0
P_0_0 0
N_0_0 0
P_0_1 0
N_0_1 0
P_0_2 1
N_0_2 1
P_1_0 1
N_1_0 1
P_1_1 0
N_1_1 0
P_1_2 0
N_1_2 0
P_2_0 0
N_2_0 0
P_2_1 1
N_2_1 1
P_2_2 0
N_2_2 0
Pairs 3
Pair_0_0_0 0
Pair_0_0_1 0
Pair_0_0_2 1
Pair_1_1_0 1
Pair_1_1_1 0
Pair_1_1_2 0
Pair_2_2_0 0
Pair_2_2_1 1
Pair_2_2_2 0
